p cnf 42 139
-9 -10 0
-9 -11 0
-9 -12 0
-10 -11 0
-10 -12 0
-11 -12 0
9 10 11 12 0
1 -9 0
2 -10 0
3 -11 0
4 -12 0
-13 -14 0
-13 -15 0
-13 -16 0
-13 -17 0
-13 -18 0
-14 -15 0
-14 -16 0
-14 -17 0
-14 -18 0
-15 -16 0
-15 -17 0
-15 -18 0
-16 -17 0
-16 -18 0
-17 -18 0
13 14 15 16 17 18 0
-19 -20 0
-19 -21 0
-19 -22 0
-19 -23 0
-19 -24 0
-20 -21 0
-20 -22 0
-20 -23 0
-20 -24 0
-21 -22 0
-21 -23 0
-21 -24 0
-22 -23 0
-22 -24 0
-23 -24 0
19 20 21 22 23 24 0
-25 -26 0
-25 -27 0
-25 -28 0
-25 -29 0
-25 -30 0
-26 -27 0
-26 -28 0
-26 -29 0
-26 -30 0
-27 -28 0
-27 -29 0
-27 -30 0
-28 -29 0
-28 -30 0
-29 -30 0
25 26 27 28 29 30 0
-31 -32 0
-31 -33 0
-31 -34 0
-31 -35 0
-31 -36 0
-32 -33 0
-32 -34 0
-32 -35 0
-32 -36 0
-33 -34 0
-33 -35 0
-33 -36 0
-34 -35 0
-34 -36 0
-35 -36 0
31 32 33 34 35 36 0
-37 -38 0
-37 -39 0
-37 -40 0
-37 -41 0
-37 -42 0
-38 -39 0
-38 -40 0
-38 -41 0
-38 -42 0
-39 -40 0
-39 -41 0
-39 -42 0
-40 -41 0
-40 -42 0
-41 -42 0
37 38 39 40 41 42 0
-1 -13 -19 0
-1 -14 -20 0
-1 -15 -21 0
-1 -16 -22 0
-1 -17 -23 0
-1 -18 -24 0
-2 -13 -25 0
-2 -14 -26 0
-2 -15 -27 0
-2 -16 -28 0
-2 -17 -29 0
-2 -18 -30 0
-3 -13 -31 0
-3 -14 -32 0
-3 -15 -33 0
-3 -16 -34 0
-3 -17 -35 0
-3 -18 -36 0
-4 -13 -37 0
-4 -14 -38 0
-4 -15 -39 0
-4 -16 -40 0
-4 -17 -41 0
-4 -18 -42 0
-5 -19 -25 0
-5 -20 -26 0
-5 -21 -27 0
-5 -22 -28 0
-5 -23 -29 0
-5 -24 -30 0
-6 -19 -31 0
-6 -20 -32 0
-6 -21 -33 0
-6 -22 -34 0
-6 -23 -35 0
-6 -24 -36 0
-7 -19 -37 0
-7 -20 -38 0
-7 -21 -39 0
-7 -22 -40 0
-7 -23 -41 0
-7 -24 -42 0
-8 -25 -31 0
-8 -26 -32 0
-8 -27 -33 0
-8 -28 -34 0
-8 -29 -35 0
-8 -30 -36 0
